337415
33,13,26,20,29,64,14,66,70,45,76,54,35,24,48,21,68,5,67,62,49,43,12,61,18,65,39,52,57,22,50,30,79,41,25,7,36,80,46,51,81,83,28,8,53,4,63,9,75,40,34,42,72,60,38,69,56,11,16,59,23,27,17,77,71,58,55,78,47,2,44,74,32,31,19,73,37,1,10,82,6,3,15